benchmarks_vrp/CMT12/tsp_classic/CMT12_5.vrp
NAME: CMT12_5
TYPE: CVRP
COMMENT: 819.56 - Cluster Nr.5
DIMENSION: 10
CAPACITY: 200
EDGE_WEIGHT_TYPE: EUC_2D
NODE_COORD_TYPE: TWOD_COORDS
NODE_COORD_SECTION: 
4 25 85
10 15 75
5 18 75
9 22 75
8 20 85
2 15 80
3 20 80
7 22 85
6 38 70
1 40 50
DEPOT_SECTION: 
1
-1
DEMAND_SECTION: 
9 30
6 10
1 0
2 10
8 40
3 40
5 20
10 20
7 10
4 20
EOF
