benchmarks_vrp/CMT12/tsp_classic/CMT12_5.tour
NAME: CMT12_5 solution
TYPE: TOUR
TOUR_SECTION:
1 6 4 7 8 3 2 10 5 9 -1
-1
EOF